NAME : 28gr137.36417.tour
COMMENT : Length = 36417
COMMENT : Found by LKH [Keld Helsgaun] Wed Jun  5 21:40:06 2013
TYPE : TOUR
DIMENSION : 28
TOUR_SECTION
2
4
5
25
28
35
63
66
92
95
94
100
104
115
109
108
118
128
134
135
136
86
76
51
16
15
10
9
-1
EOF
